p edges 49 584
e 1 12
e 1 13
e 1 14
e 1 15
e 1 16
e 1 17
e 1 18
e 1 19
e 1 20
e 1 21
e 1 22
e 1 23
e 1 24
e 1 25
e 1 26
e 1 27
e 1 28
e 1 29
e 1 30
e 1 31
e 1 32
e 1 33
e 1 34
e 1 35
e 1 36
e 1 37
e 1 38
e 1 39
e 1 40
e 1 41
e 1 42
e 1 43
e 2 28
e 2 29
e 2 30
e 2 31
e 2 32
e 2 33
e 2 34
e 2 35
e 2 36
e 2 37
e 2 38
e 2 39
e 2 40
e 2 41
e 2 42
e 2 43
e 3 7
e 4 11
e 5 28
e 6 7
e 6 44
e 7 44
e 8 9
e 8 10
e 8 11
e 8 45
e 8 46
e 8 47
e 8 48
e 9 10
e 9 11
e 9 46
e 9 47
e 9 48
e 10 11
e 10 47
e 10 48
e 11 44
e 11 45
e 11 46
e 11 47
e 12 13
e 12 14
e 12 15
e 12 16
e 12 17
e 12 18
e 12 19
e 12 20
e 12 21
e 12 22
e 12 23
e 12 24
e 12 25
e 12 26
e 12 27
e 12 28
e 12 29
e 12 30
e 12 31
e 12 32
e 12 33
e 12 34
e 12 35
e 12 36
e 12 37
e 12 38
e 12 39
e 12 40
e 12 41
e 12 42
e 12 43
e 13 14
e 13 15
e 13 16
e 13 17
e 13 18
e 13 19
e 13 20
e 13 21
e 13 22
e 13 23
e 13 24
e 13 25
e 13 26
e 13 27
e 13 28
e 13 29
e 13 30
e 13 31
e 13 32
e 13 33
e 13 34
e 13 35
e 13 36
e 13 37
e 13 38
e 13 39
e 13 40
e 13 41
e 13 42
e 13 43
e 14 15
e 14 16
e 14 17
e 14 18
e 14 19
e 14 20
e 14 21
e 14 22
e 14 23
e 14 24
e 14 25
e 14 26
e 14 27
e 14 28
e 14 29
e 14 30
e 14 31
e 14 32
e 14 33
e 14 34
e 14 35
e 14 36
e 14 37
e 14 38
e 14 39
e 14 40
e 14 41
e 14 42
e 14 43
e 15 16
e 15 17
e 15 18
e 15 19
e 15 20
e 15 21
e 15 22
e 15 23
e 15 24
e 15 25
e 15 26
e 15 27
e 15 28
e 15 29
e 15 30
e 15 31
e 15 32
e 15 33
e 15 34
e 15 35
e 15 36
e 15 37
e 15 38
e 15 39
e 15 40
e 15 41
e 15 42
e 15 43
e 16 17
e 16 18
e 16 19
e 16 20
e 16 21
e 16 22
e 16 23
e 16 24
e 16 25
e 16 26
e 16 27
e 16 28
e 16 29
e 16 30
e 16 31
e 16 32
e 16 33
e 16 34
e 16 35
e 16 36
e 16 37
e 16 38
e 16 39
e 16 40
e 16 41
e 16 42
e 16 43
e 17 18
e 17 19
e 17 20
e 17 21
e 17 22
e 17 23
e 17 24
e 17 25
e 17 26
e 17 27
e 17 28
e 17 29
e 17 30
e 17 31
e 17 32
e 17 33
e 17 34
e 17 35
e 17 36
e 17 37
e 17 38
e 17 39
e 17 40
e 17 41
e 17 42
e 17 43
e 18 19
e 18 20
e 18 21
e 18 22
e 18 23
e 18 24
e 18 25
e 18 26
e 18 27
e 18 28
e 18 29
e 18 30
e 18 31
e 18 32
e 18 33
e 18 34
e 18 35
e 18 36
e 18 37
e 18 38
e 18 39
e 18 40
e 18 41
e 18 42
e 18 43
e 19 20
e 19 21
e 19 22
e 19 23
e 19 24
e 19 25
e 19 26
e 19 27
e 19 28
e 19 29
e 19 30
e 19 31
e 19 32
e 19 33
e 19 34
e 19 35
e 19 36
e 19 37
e 19 38
e 19 39
e 19 40
e 19 41
e 19 42
e 19 43
e 20 21
e 20 22
e 20 23
e 20 24
e 20 25
e 20 26
e 20 27
e 20 28
e 20 29
e 20 30
e 20 31
e 20 32
e 20 33
e 20 34
e 20 35
e 20 36
e 20 37
e 20 38
e 20 39
e 20 40
e 20 41
e 20 42
e 20 43
e 21 22
e 21 23
e 21 24
e 21 25
e 21 26
e 21 27
e 21 28
e 21 29
e 21 30
e 21 31
e 21 32
e 21 33
e 21 34
e 21 35
e 21 36
e 21 37
e 21 38
e 21 39
e 21 40
e 21 41
e 21 42
e 21 43
e 22 23
e 22 24
e 22 25
e 22 26
e 22 27
e 22 28
e 22 29
e 22 30
e 22 31
e 22 32
e 22 33
e 22 34
e 22 35
e 22 36
e 22 37
e 22 38
e 22 39
e 22 40
e 22 41
e 22 42
e 22 43
e 23 24
e 23 25
e 23 26
e 23 27
e 23 28
e 23 29
e 23 30
e 23 31
e 23 32
e 23 33
e 23 34
e 23 35
e 23 36
e 23 37
e 23 38
e 23 39
e 23 40
e 23 41
e 23 42
e 23 43
e 24 25
e 24 26
e 24 27
e 24 28
e 24 29
e 24 30
e 24 31
e 24 32
e 24 33
e 24 34
e 24 35
e 24 36
e 24 37
e 24 38
e 24 39
e 24 40
e 24 41
e 24 42
e 24 43
e 25 26
e 25 27
e 25 28
e 25 29
e 25 30
e 25 31
e 25 32
e 25 33
e 25 34
e 25 35
e 25 36
e 25 37
e 25 38
e 25 39
e 25 40
e 25 41
e 25 42
e 25 43
e 26 27
e 26 28
e 26 29
e 26 30
e 26 31
e 26 32
e 26 33
e 26 34
e 26 35
e 26 36
e 26 37
e 26 38
e 26 39
e 26 40
e 26 41
e 26 42
e 26 43
e 27 28
e 27 29
e 27 30
e 27 31
e 27 32
e 27 33
e 27 34
e 27 35
e 27 36
e 27 37
e 27 38
e 27 39
e 27 40
e 27 41
e 27 42
e 27 43
e 28 29
e 28 30
e 28 31
e 28 32
e 28 33
e 28 34
e 28 35
e 28 36
e 28 37
e 28 38
e 28 39
e 28 40
e 28 41
e 28 42
e 28 43
e 28 47
e 28 48
e 28 49
e 29 30
e 29 31
e 29 32
e 29 33
e 29 34
e 29 35
e 29 36
e 29 37
e 29 38
e 29 39
e 29 40
e 29 41
e 29 42
e 29 43
e 29 48
e 29 49
e 30 31
e 30 32
e 30 33
e 30 34
e 30 35
e 30 36
e 30 37
e 30 38
e 30 39
e 30 40
e 30 41
e 30 42
e 30 43
e 30 49
e 31 32
e 31 33
e 31 34
e 31 35
e 31 36
e 31 37
e 31 38
e 31 39
e 31 40
e 31 41
e 31 42
e 31 43
e 31 49
e 32 33
e 32 34
e 32 35
e 32 36
e 32 37
e 32 38
e 32 39
e 32 40
e 32 41
e 32 42
e 32 43
e 32 49
e 33 34
e 33 35
e 33 36
e 33 37
e 33 38
e 33 39
e 33 40
e 33 41
e 33 42
e 33 43
e 33 49
e 34 35
e 34 36
e 34 37
e 34 38
e 34 39
e 34 40
e 34 41
e 34 42
e 34 43
e 35 36
e 35 37
e 35 38
e 35 39
e 35 40
e 35 41
e 35 42
e 35 43
e 36 37
e 36 38
e 36 39
e 36 40
e 36 41
e 36 42
e 36 43
e 37 38
e 37 39
e 37 40
e 37 41
e 37 42
e 37 43
e 38 39
e 38 40
e 38 41
e 38 42
e 38 43
e 39 40
e 39 41
e 39 42
e 39 43
e 40 41
e 40 42
e 40 43
e 41 42
e 41 43
e 42 43
e 44 45
e 44 46
e 45 46
e 47 48
e 47 49
e 48 49
w 1 967
w 2 500
w 3 500
w 4 500
w 5 500
w 6 500
w 7 500
w 8 166
w 9 166
w 10 166
w 11 500
w 12 16
w 13 32
w 14 32
w 15 32
w 16 32
w 17 32
w 18 32
w 19 32
w 20 32
w 21 32
w 22 32
w 23 32
w 24 32
w 25 32
w 26 32
w 27 32
w 28 32
w 29 32
w 30 32
w 31 32
w 32 32
w 33 32
w 34 32
w 35 32
w 36 32
w 37 32
w 38 32
w 39 32
w 40 32
w 41 32
w 42 32
w 43 16
w 44 500
w 45 333
w 46 166
w 47 500
w 48 333
w 49 166
n 1 C3177
n 2 C0760
n 3 C0865
n 4 C1239
n 5 C1613
n 6 C1988
n 7 C2089
n 8 C2362
n 9 C2364
n 10 C2365
n 11 C2497
n 12 C2750
n 13 C2751
n 14 C2752
n 15 C2753
n 16 C2754
n 17 C2755
n 18 C2756
n 19 C2757
n 20 C2758
n 21 C2759
n 22 C2760
n 23 C2761
n 24 C2762
n 25 C2763
n 26 C2764
n 27 C2765
n 28 C2837
n 29 C2838
n 30 C2839
n 31 C2840
n 32 C2841
n 33 C2842
n 34 C2843
n 35 C2844
n 36 C2845
n 37 C2846
n 38 C2847
n 39 C2848
n 40 C2849
n 41 C2850
n 42 C2851
n 43 C2852
n 44 C3109
n 45 C3111
n 46 C3112
n 47 C3143
n 48 C3144
n 49 C3148
o 1 2
o 2 113
o 3 150
o 4 524
o 5 898
o 6 1273
o 7 1374
o 8 1647
o 9 1649
o 10 1650
o 11 1782
o 12 2035
o 13 2036
o 14 2037
o 15 2038
o 16 2039
o 17 2040
o 18 2041
o 19 2042
o 20 2043
o 21 2044
o 22 2045
o 23 2046
o 24 2047
o 25 2048
o 26 2049
o 27 2050
o 28 2122
o 29 2123
o 30 2124
o 31 2125
o 32 2126
o 33 2127
o 34 2128
o 35 2129
o 36 2130
o 37 2131
o 38 2132
o 39 2133
o 40 2134
o 41 2135
o 42 2136
o 43 2137
o 44 2394
o 45 2396
o 46 2397
o 47 2428
o 48 2429
o 49 2433
